
  17    4
  10   10   10   10

   0   0   0   0   0   3 2 4 5 
   9  10  10  10  10   3 8 7 3 
  10  10  10  10  10   5 16 14 11 9 6 
   3  10  10  10  10   5 16 15 11 10 8 
   4  10  10  10  10   4 15 14 11 10 
   9  10  10  10  10   2 15 10 
   9  10  10  10  10   2 14 10 
  10  10  10  10  10   3 14 13 12 
   6  10  10  10  10   1 10 
   7  10  10  10  10   2 13 12 
   4  10  10  10  10   1 12 
   5  10  10  10  10   1 17
   3  10  10  10  10   1 17
  10  10  10  10  10   1 17
   3  10  10  10  10   1 17
   5  10  10  10  10   1 17
   0   0   0   0   0   0 
